NAME : in_house_8_4
TYPE : TSP
DIMENSION : 8
EDGE_WEIGHT_TYPE : EXPLICIT
EDGE_WEIGHT_FORMAT : UPPER_ROW
COMMENT : INVERSION_SHIFT=5
EDGE_WEIGHT_SECTION
56
28
30
25
11
3
51
10
11
63
9
63
29
62
16
33
23
17
43
13
54
40
62
51
52
11
2
44
